NAME : portcgen-15-8
COMMENT : portcgen N=15, seed=8
TYPE : TSP
DIMENSION : 15
EDGE_WEIGHT_TYPE : EUC_2D
NODE_COORD_SECTION
1 -244907 14881
2 167527 166636
3 9896 -407526
4 -58624 -83099
5 -453558 152373
6 -19267 39093
7 -54911 -43046
8 194997 -224608
9 171483 -301890
10 136808 99769
11 65328 34249
12 123140 -181696
13 -106378 1809
14 -90564 188316
15 -135838 508039
